33D32945 STP File, STP Format Version 1.0

SECTION Comments
Name "shell_n13_d2_s34"
Problem "Euclidean Steiner Tree Problem"
Remark "Generated with STPGenerator. 2 dimensions."
END

SECTION Graph
Nodes 13
END

SECTION Coordinates
DD 0 0.8958092114 -0.4444388111
DD 1 -0.9988797407 -0.0473208581
DD 2 -0.9994921143 0.0318671230
DD 3 -0.3638253381 0.9314671885
DD 4 -0.9932340918 -0.1161294056
DD 5 0.3819470026 -0.9241842279
DD 6 0.4032676353 -0.9150820806
DD 7 0.2921310093 0.9563783108
DD 8 0.0567459092 0.9983886527
DD 9 0.8940849576 -0.4478974086
DD 10 -0.9325259611 0.3611029380
DD 11 0.6774224520 -0.7355941963
DD 12 -0.9848550980 0.1733794563
END
